p edge 500 189
e 243 337 1.000000
e 138 243 1.000000
e 138 337 1.000000
e 271 342 1.000000
e 180 271 1.000000
e 180 342 1.000000
e 74 196 1.000000
e 6 74 1.000000
e 6 196 1.000000
e 192 248 1.000000
e 141 192 1.000000
e 141 248 1.000000
e 330 415 1.000000
e 236 330 1.000000
e 236 415 1.000000
e 354 443 1.000000
e 308 354 1.000000
e 308 443 1.000000
e 117 286 1.000000
e 1 117 1.000000
e 1 286 1.000000
e 320 339 1.000000
e 75 339 1.000000
e 75 320 1.000000
e 189 226 1.000000
e 84 226 1.000000
e 84 189 1.000000
e 174 464 1.000000
e 108 174 1.000000
e 108 464 1.000000
e 31 296 1.000000
e 31 420 1.000000
e 296 420 1.000000
e 103 263 1.000000
e 39 103 1.000000
e 39 263 1.000000
e 352 420 1.000000
e 173 352 1.000000
e 173 420 1.000000
e 349 409 1.000000
e 208 349 1.000000
e 208 409 1.000000
e 45 432 1.000000
e 10 432 1.000000
e 10 45 1.000000
e 32 471 1.000000
e 32 420 1.000000
e 420 471 1.000000
e 339 469 1.000000
e 261 469 1.000000
e 261 339 1.000000
e 115 217 1.000000
e 47 115 1.000000
e 47 217 1.000000
e 228 485 1.000000
e 58 485 1.000000
e 58 228 1.000000
e 339 498 1.000000
e 217 339 1.000000
e 217 498 1.000000
e 70 277 1.000000
e 70 161 1.000000
e 161 277 1.000000
e 319 452 1.000000
e 286 452 1.000000
e 286 319 1.000000
e 84 500 1.000000
e 84 357 1.000000
e 357 500 1.000000
e 27 454 1.000000
e 27 285 1.000000
e 285 454 1.000000
e 88 260 1.000000
e 88 418 1.000000
e 260 418 1.000000
e 43 206 1.000000
e 43 312 1.000000
e 206 312 1.000000
e 215 343 1.000000
e 215 306 1.000000
e 306 343 1.000000
e 241 245 1.000000
e 241 312 1.000000
e 245 312 1.000000
e 197 278 1.000000
e 16 197 1.000000
e 16 278 1.000000
e 329 372 1.000000
e 43 329 1.000000
e 43 372 1.000000
e 496 500 1.000000
e 99 496 1.000000
e 99 500 1.000000
e 340 404 1.000000
e 134 404 1.000000
e 134 340 1.000000
e 183 482 1.000000
e 183 186 1.000000
e 186 482 1.000000
e 354 444 1.000000
e 198 444 1.000000
e 198 354 1.000000
e 159 345 1.000000
e 59 345 1.000000
e 59 159 1.000000
e 130 172 1.000000
e 121 130 1.000000
e 121 172 1.000000
e 187 191 1.000000
e 187 262 1.000000
e 191 262 1.000000
e 294 415 1.000000
e 294 392 1.000000
e 392 415 1.000000
e 92 257 1.000000
e 15 257 1.000000
e 15 92 1.000000
e 196 422 1.000000
e 196 440 1.000000
e 422 440 1.000000
e 221 266 1.000000
e 17 221 1.000000
e 17 266 1.000000
e 14 114 1.000000
e 14 346 1.000000
e 114 346 1.000000
e 23 219 1.000000
e 23 199 1.000000
e 199 219 1.000000
e 105 396 1.000000
e 105 311 1.000000
e 311 396 1.000000
e 53 386 1.000000
e 53 282 1.000000
e 282 386 1.000000
e 92 113 1.000000
e 40 113 1.000000
e 40 92 1.000000
e 141 357 1.000000
e 19 357 1.000000
e 19 141 1.000000
e 222 256 1.000000
e 142 222 1.000000
e 142 256 1.000000
e 177 309 1.000000
e 177 327 1.000000
e 309 327 1.000000
e 27 372 1.000000
e 27 264 1.000000
e 264 372 1.000000
e 189 236 1.000000
e 107 236 1.000000
e 107 189 1.000000
e 174 234 1.000000
e 145 174 1.000000
e 145 234 1.000000
e 244 357 1.000000
e 244 491 1.000000
e 357 491 1.000000
e 247 439 1.000000
e 123 439 1.000000
e 123 247 1.000000
e 86 490 1.000000
e 86 238 1.000000
e 238 490 1.000000
e 282 474 1.000000
e 187 474 1.000000
e 187 282 1.000000
e 94 97 1.000000
e 94 393 1.000000
e 97 393 1.000000
e 384 467 1.000000
e 113 384 1.000000
e 113 467 1.000000
e 311 486 1.000000
e 4 311 1.000000
e 4 486 1.000000
e 138 469 1.000000
e 138 395 1.000000
e 395 469 1.000000
e 175 411 1.000000
e 92 411 1.000000
e 92 175 1.000000
e 124 408 1.000000
e 5 124 1.000000
e 5 408 1.000000
e 21 257 1.000000
e 21 127 1.000000
e 127 257 1.000000
